project/data/plat/exemple.dat.lp
\* Problem: robots *\

Minimize
 obj: + 10000 x_1,1 + 786 x_1,2 + 549 x_1,3 + 657 x_1,4 + 331 x_1,5
 + 559 x_1,6 + 250 x_1,7 + 786 x_2,1 + 10000 x_2,2 + 668 x_2,3
 + 979 x_2,4 + 593 x_2,5 + 224 x_2,6 + 905 x_2,7 + 549 x_3,1 + 668 x_3,2
 + 10000 x_3,3 + 316 x_3,4 + 607 x_3,5 + 472 x_3,6 + 467 x_3,7
 + 657 x_4,1 + 979 x_4,2 + 316 x_4,3 + 10000 x_4,4 + 890 x_4,5
 + 769 x_4,6 + 400 x_4,7 + 331 x_5,1 + 593 x_5,2 + 607 x_5,3 + 890 x_5,4
 + 10000 x_5,5 + 386 x_5,6 + 559 x_5,7 + 559 x_6,1 + 224 x_6,2
 + 472 x_6,3 + 769 x_6,4 + 386 x_6,5 + 10000 x_6,6 + 681 x_6,7
 + 250 x_7,1 + 905 x_7,2 + 467 x_7,3 + 400 x_7,4 + 559 x_7,5 + 681 x_7,6
 + 10000 x_7,7

Subject To
 (1'): + x_1,7 + x_1,6 + x_1,5 + x_1,4 + x_1,3 + x_1,2 = 1
 (1'): + x_2,7 + x_2,6 + x_2,5 + x_2,4 + x_2,3 + x_2,1 = 1
 (1'): + x_3,7 + x_3,6 + x_3,5 + x_3,4 + x_3,2 + x_3,1 = 1
 (1'): + x_4,7 + x_4,6 + x_4,5 + x_4,3 + x_4,2 + x_4,1 = 1
 (1'): + x_5,7 + x_5,6 + x_5,4 + x_5,3 + x_5,2 + x_5,1 = 1
 (1'): + x_6,7 + x_6,5 + x_6,4 + x_6,3 + x_6,2 + x_6,1 = 1
 (1'): + x_7,6 + x_7,5 + x_7,4 + x_7,3 + x_7,2 + x_7,1 = 1
 (2'): + x_7,1 + x_6,1 + x_5,1 + x_4,1 + x_3,1 + x_2,1 = 1
 (2'): + x_7,2 + x_6,2 + x_5,2 + x_4,2 + x_3,2 + x_1,2 = 1
 (2'): + x_7,3 + x_6,3 + x_5,3 + x_4,3 + x_2,3 + x_1,3 = 1
 (2'): + x_7,4 + x_6,4 + x_5,4 + x_3,4 + x_2,4 + x_1,4 = 1
 (2'): + x_7,5 + x_6,5 + x_4,5 + x_3,5 + x_2,5 + x_1,5 = 1
 (2'): + x_7,6 + x_5,6 + x_4,6 + x_3,6 + x_2,6 + x_1,6 = 1
 (2'): + x_6,7 + x_5,7 + x_4,7 + x_3,7 + x_2,7 + x_1,7 = 1
 (3): + x_2,6 + x_6,2 <= 1
 (3): + x_1,7 + x_7,1 <= 1

Bounds
 0 <= x_1,1 <= 1
 0 <= x_1,2 <= 1
 0 <= x_1,3 <= 1
 0 <= x_1,4 <= 1
 0 <= x_1,5 <= 1
 0 <= x_1,6 <= 1
 0 <= x_1,7 <= 1
 0 <= x_2,1 <= 1
 0 <= x_2,2 <= 1
 0 <= x_2,3 <= 1
 0 <= x_2,4 <= 1
 0 <= x_2,5 <= 1
 0 <= x_2,6 <= 1
 0 <= x_2,7 <= 1
 0 <= x_3,1 <= 1
 0 <= x_3,2 <= 1
 0 <= x_3,3 <= 1
 0 <= x_3,4 <= 1
 0 <= x_3,5 <= 1
 0 <= x_3,6 <= 1
 0 <= x_3,7 <= 1
 0 <= x_4,1 <= 1
 0 <= x_4,2 <= 1
 0 <= x_4,3 <= 1
 0 <= x_4,4 <= 1
 0 <= x_4,5 <= 1
 0 <= x_4,6 <= 1
 0 <= x_4,7 <= 1
 0 <= x_5,1 <= 1
 0 <= x_5,2 <= 1
 0 <= x_5,3 <= 1
 0 <= x_5,4 <= 1
 0 <= x_5,5 <= 1
 0 <= x_5,6 <= 1
 0 <= x_5,7 <= 1
 0 <= x_6,1 <= 1
 0 <= x_6,2 <= 1
 0 <= x_6,3 <= 1
 0 <= x_6,4 <= 1
 0 <= x_6,5 <= 1
 0 <= x_6,6 <= 1
 0 <= x_6,7 <= 1
 0 <= x_7,1 <= 1
 0 <= x_7,2 <= 1
 0 <= x_7,3 <= 1
 0 <= x_7,4 <= 1
 0 <= x_7,5 <= 1
 0 <= x_7,6 <= 1
 0 <= x_7,7 <= 1

Generals
 x_1,1
 x_1,2
 x_1,3
 x_1,4
 x_1,5
 x_1,6
 x_1,7
 x_2,1
 x_2,2
 x_2,3
 x_2,4
 x_2,5
 x_2,6
 x_2,7
 x_3,1
 x_3,2
 x_3,3
 x_3,4
 x_3,5
 x_3,6
 x_3,7
 x_4,1
 x_4,2
 x_4,3
 x_4,4
 x_4,5
 x_4,6
 x_4,7
 x_5,1
 x_5,2
 x_5,3
 x_5,4
 x_5,5
 x_5,6
 x_5,7
 x_6,1
 x_6,2
 x_6,3
 x_6,4
 x_6,5
 x_6,6
 x_6,7
 x_7,1
 x_7,2
 x_7,3
 x_7,4
 x_7,5
 x_7,6
 x_7,7

End
